#n B3LYP/6-31G(d) Opt

 DI0

0 1
C          2.25118        1.20727        1.57804
C          0.87486        1.76670        1.33582
C          2.62570        0.17059        0.51706
C         -0.08304        1.03531        0.60272
C          1.52180       -0.87988        0.40139
N          0.25316       -0.25061        0.06323
H          2.26078        0.75029        2.59111
C          0.54663        3.02156        1.84975
C         -1.37055        1.58007        0.40026
C         -0.68543       -0.95907       -0.79506
C         -1.68459        2.84120        0.92433
C         -2.40178        0.82166       -0.39330
H          3.59057       -0.30899        0.78951
C         -2.12496       -0.68366       -0.36143
H         -3.41488        0.99560        0.02880
H         -2.27488       -1.06383        0.67424
H          1.41379       -1.41596        1.36774
H         -0.50079       -2.05482       -0.74757
H          3.01113        2.01877        1.55363
H          2.75243        0.67869       -0.46541
H         -2.83744       -1.20906       -1.03322
H         -2.38741        1.19937       -1.43901
H          1.80912       -1.61438       -0.38259
H         -0.54161       -0.62184       -1.84321
C         -3.02737        4.35361        3.49556
O         -2.74538        3.18822        3.73668
O         -4.25846        4.81233        3.77781
H         -4.93304        4.20462        4.10161
C         -0.72345        3.56084        1.65344
H         -2.66427        3.26565        0.73616
H          1.28160        3.58032        2.41574
C         -2.02968        5.28525        2.93543
C         -2.15564        6.67907        3.28514
C         -0.98837        4.91432        2.17127
N         -2.26147        7.79544        3.56867
H         -0.27287        5.67151        1.87233

