#n B3LYP/6-31G(d) Opt

 DI1

0 1
C         -2.12609        1.71959       -2.41423
C         -1.60315        2.09467       -1.04192
C         -2.10750        0.19384       -2.65210
C         -0.86327        1.15493       -0.28879
C         -0.74930       -0.36869       -2.25489
N         -0.56196       -0.13434       -0.83243
H         -1.51259        2.25005       -3.17307
C         -1.87955        3.36708       -0.49772
C         -0.43147        1.47984        1.00792
C         -0.09122       -1.19261        0.05202
C         -0.77348        2.71308        1.55808
C          0.38151        0.50097        1.82559
H         -2.34409       -0.02322       -3.71534
C          0.98762       -0.61548        0.95886
H          1.22629        1.02024        2.32800
H          1.79302       -0.19467        0.31574
H          0.03540        0.16489       -2.83258
H          0.30340       -2.05547       -0.52708
H         -3.18310        2.04486       -2.52687
H         -2.87995       -0.29778       -2.01709
H          1.43368       -1.39274        1.61533
H         -0.28505        0.08178        2.61086
H         -0.68487       -1.45320       -2.49277
H         -0.92692       -1.55259        0.69095
C         -3.61237        9.58533        4.46354
O         -3.50945        9.71505        3.25736
O         -4.07624       10.61605        5.20542
H         -4.33272       11.45977        4.80844
C         -3.22189        8.33058        5.14682
C         -1.48864        3.67513        0.82045
H         -2.45194        4.08072       -1.07770
H         -0.45170        2.92184        2.56954
C         -3.36156        8.27113        6.58179
N         -3.46901        8.21081        7.73272
C         -2.75725        7.20073        4.59232
C         -2.47493        6.65888        3.24628
C         -2.66691        7.11638        1.93606
C         -2.33061        6.15314        0.95368
C         -1.85868        4.95104        1.49147
S         -1.85924        5.11739        3.15812
H         -3.06133        8.07934        1.66131
H         -2.44418        6.33760       -0.10761

