#n B3LYP/6-31G(d) Opt

 DI3

0 1
H         -4.71404       -8.44436        7.30037
H         -6.09674       -8.05297        4.04570
N         -3.01923        8.30476        6.68491
H         -3.68134       -6.39285        8.62085
C         -3.50699        8.59042        5.67476
C         -3.78379       -8.55782        6.70153
C         -5.19216       -7.92403        3.41050
H         -4.13219       -9.60854        4.30519
C         -2.93085       -6.47210        7.80493
S         -4.08563        5.62189        4.96817
N         -3.91357       -7.82924        5.44946
H         -3.61441       -9.64121        6.52140
C         -4.01048       -8.51246        4.16896
H         -5.36437       -8.44801        2.44604
C         -4.11389        8.95809        4.41472
H         -2.42967       -8.50320        8.42437
C         -3.47878       -5.71260        6.61343
C         -3.94311       -6.40288        5.47727
C         -2.62676       -7.94914        7.48177
O         -3.69926       11.32454        4.91303
C         -4.60135        8.04497        3.55219
C         -3.52368       -4.31185        6.63846
H         -5.92019       -5.99345        2.81071
C         -4.43438       -5.68973        4.36742
C         -4.95190       -6.42370        3.14685
C         -4.19019       10.39584        4.06361
C         -4.63025        6.57123        3.68445
H         -3.16789       -3.80445        7.52360
C         -3.99343       -3.58294        5.52776
C         -4.48348        4.13897        4.28129
C         -4.43928       -4.28931        4.39352
H         -1.98127       -6.01530        8.15897
H         -3.73512       12.26905        4.70510
O         -4.69349       10.75045        3.00649
H         -4.81030       -3.75823        3.52641
C         -5.13581        5.72956        2.70274
H         -3.08557       -8.33461        3.57735
C         -5.05489        4.37132        3.03075
H         -1.71885       -8.01346        6.84137
H         -4.20621       -6.28051        2.33519
H         -5.55058        6.08545        1.76841
H         -5.40565        3.59682        2.36358
C         -4.01638       -2.09415        5.53629
C         -3.59366       -1.25007        6.56656
C         -3.72547        0.11291        6.27073
C         -4.25524        0.35606        5.00579
S         -4.55725       -1.12109        4.26714
H         -3.19326       -1.58805        7.51110
H         -3.43531        0.88446        6.96994
C         -4.23408        2.83882        4.93886
C         -4.51881        1.65892        4.36107
H         -3.79008        2.86710        5.92744
H         -4.95308        1.63064        3.36845

