# opt b3lyp/6-31g(d)

DI0

0 1
 C                  2.25118000    1.20727000    1.57804000
 C                  0.87486000    1.76670000    1.33582000
 C                  2.62570000    0.17059000    0.51706000
 C                 -0.08304000    1.03531000    0.60272000
 C                  1.52180000   -0.87988000    0.40139000
 N                  0.25316000   -0.25061000    0.06323000
 H                  2.26078000    0.75029000    2.59111000
 C                  0.54663000    3.02156000    1.84975000
 C                 -1.37055000    1.58007000    0.40026000
 C                 -0.68543000   -0.95907000   -0.79506000
 C                 -1.68459000    2.84120000    0.92433000
 C                 -2.40178000    0.82166000   -0.39330000
 H                  3.59057000   -0.30899000    0.78951000
 C                 -2.12496000   -0.68366000   -0.36143000
 H                 -3.41488000    0.99560000    0.02880000
 H                 -2.27488000   -1.06383000    0.67424000
 H                  1.41379000   -1.41596000    1.36774000
 H                 -0.50079000   -2.05482000   -0.74757000
 H                  3.01113000    2.01877000    1.55363000
 H                  2.75243000    0.67869000   -0.46541000
 H                 -2.83744000   -1.20906000   -1.03322000
 H                 -2.38741000    1.19937000   -1.43901000
 H                  1.80912000   -1.61438000   -0.38259000
 H                 -0.54161000   -0.62184000   -1.84321000
 C                 -3.02737000    4.35361000    3.49556000
 O                 -2.74538000    3.18822000    3.73668000
 O                 -4.25846000    4.81233000    3.77781000
 H                 -4.93304000    4.20462000    4.10161000
 C                 -0.72345000    3.56084000    1.65344000
 H                 -2.66427000    3.26565000    0.73616000
 H                  1.28160000    3.58032000    2.41574000
 C                 -2.02968000    5.28525000    2.93543000
 C                 -2.15564000    6.67907000    3.28514000
 C                 -0.98837000    4.91432000    2.17127000
 N                 -2.26147000    7.79544000    3.56867000
 H                 -0.27287000    5.67151000    1.87233000

