# opt b3lyp/6-31g(d)

DI4

0 2
 H                 -5.00450000  -12.09704000   12.25594000
 H                 -6.76306000  -11.42776000    8.96345000
 N                 -3.02621000    7.58843000    7.50603000
 H                 -3.90181000   -9.87164000   13.12307000
 C                 -3.22573000    6.97054000    6.54997000
 C                 -4.12188000  -12.24192000   11.59981000
 C                 -5.88476000  -11.72967000    8.35087000
 H                 -5.41187000  -13.38838000    9.64540000
 C                 -3.11652000  -10.08227000   12.36880000
 S                 -3.38394000    2.67365000    7.05242000
 N                 -4.39632000  -11.65243000   10.29796000
 H                 -3.93491000  -13.33137000   11.49859000
 C                 -4.89703000  -12.49894000    9.22554000
 H                 -6.24752000  -12.37312000    7.52104000
 C                 -3.48470000    6.20037000    5.36868000
 H                 -2.70144000  -12.02870000   13.23789000
 C                 -3.55384000   -9.46736000   11.06664000
 C                 -4.16992000  -10.25484000   10.07304000
 C                 -2.89589000  -11.59063000   12.23548000
 O                 -3.41908000    8.15998000    3.96889000
 C                 -3.62985000    4.90068000    5.46629000
 C                 -3.35248000   -8.10236000   10.84734000
 H                 -5.98367000   -9.88224000    7.24728000
 C                 -4.55734000   -9.66087000    8.85505000
 C                 -5.21208000  -10.48116000    7.77702000
 C                 -3.59200000    6.83925000    4.05723000
 C                 -3.77218000    3.48887000    5.65366000
 H                 -2.85918000   -7.51949000   11.61246000
 C                 -3.73161000   -7.51344000    9.63055000
 C                 -3.83065000    1.17401000    6.43735000
 C                 -4.31832000   -8.30261000    8.63709000
 H                 -2.16666000   -9.62217000   12.71658000
 H                 -3.48412000    8.56081000    3.09973000
 O                 -3.82061000    6.19005000    3.04467000
 H                 -4.62506000   -7.85152000    7.70252000
 C                 -4.24489000    2.63062000    4.68427000
 H                 -4.04235000  -12.84624000    8.60997000
 C                 -4.28858000    1.31306000    5.13136000
 H                 -2.00459000  -11.77932000   11.59699000
 H                 -4.42936000  -10.76628000    7.04412000
 H                 -4.54941000    2.96134000    3.69625000
 H                 -4.63103000    0.48795000    4.52179000
 C                 -3.76434000   -0.09261000    7.17089000
 C                 -3.13373000   -0.19094000    8.35345000
 H                 -4.25985000   -0.94995000    6.72564000
 C                 -3.08110000   -1.43767000    9.11901000
 C                 -2.59625000   -1.53549000   10.41650000
 C                 -2.71040000   -2.82396000   10.94021000
 C                 -3.25079000   -3.72807000   10.03529000
 S                 -3.60671000   -2.94489000    8.59317000
 H                 -2.18974000   -0.69531000   10.96881000
 H                 -2.38848000   -3.09823000   11.93856000
 H                 -2.63916000    0.66890000    8.79361000
 C                 -3.47736000   -5.14718000   10.32022000
 C                 -3.51708000   -6.07949000    9.35334000
 H                 -3.37235000   -5.79682000    8.31331000
 H                 -3.63044000   -5.41227000   11.35981000

